n_res = 4;
rc = [ 15, 13, 10, 8 ];
n_tasks = 30;
d = [ 6, 10, 8, 7, 2, 1, 5, 9, 7, 6, 9, 10, 3, 4, 7, 9, 4, 6, 2, 2, 1, 1, 7, 4, 10, 7, 6, 7, 8, 3 ];
rr = [| 0, 0, 0, 7, 0, 0, 0, 1, 0, 6, 0, 0, 5, 0, 5, 3, 1, 3, 7, 0, 0, 0, 10, 0, 10, 0, 0, 10, 0, 6
      | 0, 0, 0, 0, 0, 0, 0, 0, 4, 0, 0, 8, 0, 0, 0, 0, 0, 0, 0, 8, 0, 8, 0, 9, 0, 0, 0, 0, 2, 0
      | 6, 1, 0, 0, 8, 0, 0, 0, 0, 0, 2, 0, 0, 9, 0, 0, 0, 0, 0, 0, 0, 0, 0, 0, 0, 0, 0, 0, 0, 0
      | 0, 0, 5, 0, 0, 1, 7, 0, 0, 0, 0, 0, 0, 0, 0, 0, 0, 0, 0, 0, 1, 0, 0, 0, 0, 1, 6, 0, 0, 0 |];
suc = [ { 2 }, 
        { 1 }, 
        { 4 }, 
        { 3 }, 
        { 6 }, 
        { 5 }, 
        { 8 }, 
        { 7 }, 
        { 10 }, 
        { 9 }, 
        { 12 }, 
        { 11 }, 
        { 14 }, 
        { 13 }, 
        { 16 }, 
        { 15 }, 
        { 18 }, 
        { 17 }, 
        { 20 }, 
        { 19 }, 
        { 22 }, 
        { 21 }, 
        { 24 }, 
        { 23 }, 
        { 26 }, 
        { 25 }, 
        { 28 }, 
        { 27 }, 
        { 30 }, 
        { 29 }]; 
